%SETS
JOBS     = 1..20;
MACHINES = 1..25;
SPEED    = 5;

time        = array3d(JOBS,MACHINES,1..SPEED,[3, 1, 1, 1, 1, 19, 6, 4, 3, 3, 35, 12, 8, 7, 6, 28, 9, 7, 5, 5, 16, 5, 3, 3, 2, 5, 2, 1, 1, 1, 17, 6, 4, 3, 3, 12, 4, 2, 2, 2, 16, 5, 4, 3, 3, 11, 4, 2, 2, 2, 47, 16, 11, 9, 8, 37, 13, 9, 7, 6, 9, 3, 2, 1, 1, 21, 7, 5, 4, 3, 8, 2, 2, 1, 1, 15, 5, 3, 3, 2, 11, 3, 2, 2, 2, 27, 9, 6, 5, 4, 11, 4, 2, 2, 2, 15, 5, 3, 3, 2, 32, 11, 8, 6, 5, 13, 4, 3, 2, 2, 61, 21, 15, 12, 11, 5, 1, 1, 1, 1, 34, 12, 8, 7, 6, 14, 4, 3, 2, 2, 14, 4, 3, 2, 2, 26, 8, 6, 5, 4, 19, 6, 4, 3, 3, 13, 4, 3, 2, 2, 1, 1, 1, 1, 1, 2, 1, 1, 1, 1, 31, 11, 7, 6, 5, 19, 6, 4, 3, 3, 30, 10, 7, 6, 5, 80, 27, 19, 16, 14, 29, 10, 7, 6, 5, 1, 1, 1, 1, 1, 9, 3, 2, 1, 1, 23, 8, 5, 4, 4, 6, 2, 1, 1, 1, 86, 29, 21, 17, 15, 75, 25, 18, 15, 13, 48, 16, 11, 9, 8, 16, 5, 4, 3, 2, 47, 16, 11, 9, 8, 3, 1, 1, 1, 1, 9, 3, 2, 1, 1, 16, 5, 3, 3, 2, 35, 12, 8, 7, 6, 17, 5, 4, 3, 3, 3, 1, 1, 1, 1, 10, 3, 2, 2, 1, 10, 3, 2, 2, 1, 9, 3, 2, 1, 1, 4, 1, 1, 1, 1, 13, 4, 3, 2, 2, 15, 5, 3, 3, 2, 38, 13, 9, 7, 6, 41, 14, 10, 8, 7, 19, 6, 4, 3, 3, 15, 5, 3, 3, 2, 38, 13, 9, 7, 7, 56, 19, 13, 11, 10, 29, 10, 7, 5, 5, 41, 14, 10, 8, 7, 72, 25, 17, 14, 13, 1, 1, 1, 1, 1, 53, 18, 13, 10, 9, 8, 2, 2, 1, 1, 16, 5, 4, 3, 3, 41, 14, 10, 8, 7, 32, 11, 8, 6, 5, 4, 1, 1, 1, 1, 27, 9, 6, 5, 5, 1, 1, 1, 1, 1, 11, 3, 2, 2, 2, 43, 14, 10, 8, 7, 14, 4, 3, 2, 2, 23, 8, 5, 4, 4, 33, 11, 8, 6, 6, 44, 15, 10, 9, 8, 36, 12, 9, 7, 6, 1, 1, 1, 1, 1, 14, 4, 3, 2, 2, 16, 5, 3, 3, 2, 1, 1, 1, 1, 1, 20, 6, 4, 4, 3, 24, 8, 5, 4, 4, 45, 15, 11, 9, 8, 73, 25, 18, 14, 13, 3, 1, 1, 1, 1, 6, 2, 1, 1, 1, 27, 9, 6, 5, 5, 3, 1, 1, 1, 1, 6, 2, 1, 1, 1, 22, 7, 5, 4, 3, 4, 1, 1, 1, 1, 39, 13, 9, 8, 7, 50, 17, 12, 10, 9, 1, 1, 1, 1, 1, 19, 6, 4, 4, 3, 41, 14, 10, 8, 7, 95, 33, 23, 19, 17, 8, 2, 2, 1, 1, 4, 1, 1, 1, 1, 54, 18, 13, 11, 9, 62, 21, 15, 12, 11, 5, 1, 1, 1, 1, 15, 5, 3, 3, 2, 32, 11, 8, 6, 5, 48, 16, 11, 9, 8, 4, 1, 1, 1, 1, 28, 9, 6, 5, 5, 42, 14, 10, 8, 7, 20, 7, 5, 4, 3, 4, 1, 1, 1, 1, 1, 1, 1, 1, 1, 8, 2, 2, 1, 1, 42, 14, 10, 8, 7, 1, 1, 1, 1, 1, 1, 1, 1, 1, 1, 11, 4, 2, 2, 2, 1, 1, 1, 1, 1, 4, 1, 1, 1, 1, 1, 1, 1, 1, 1, 19, 6, 4, 3, 3, 30, 10, 7, 6, 5, 14, 4, 3, 2, 2, 3, 1, 1, 1, 1, 10, 3, 2, 2, 1, 23, 7, 5, 4, 4, 73, 25, 17, 14, 13, 126, 43, 31, 25, 22, 7, 2, 1, 1, 1, 1, 1, 1, 1, 1, 45, 15, 11, 9, 8, 67, 23, 16, 13, 12, 15, 5, 3, 3, 2, 38, 13, 9, 7, 6, 52, 17, 12, 10, 9, 24, 8, 5, 4, 4, 53, 18, 13, 10, 9, 1, 1, 1, 1, 1, 8, 2, 2, 1, 1, 8, 2, 2, 1, 1, 3, 1, 1, 1, 1, 62, 21, 15, 12, 11, 1, 1, 1, 1, 1, 28, 9, 7, 5, 5, 1, 1, 1, 1, 1, 11, 3, 2, 2, 2, 14, 4, 3, 2, 2, 5, 1, 1, 1, 1, 19, 6, 4, 3, 3, 19, 6, 4, 4, 3, 9, 3, 2, 2, 1, 34, 11, 8, 7, 6, 4, 1, 1, 1, 1, 5, 1, 1, 1, 1, 11, 3, 2, 2, 2, 12, 4, 3, 2, 2, 5, 2, 1, 1, 1, 64, 22, 15, 13, 11, 45, 15, 11, 9, 8, 2, 1, 1, 1, 1, 11, 4, 2, 2, 2, 6, 2, 1, 1, 1, 15, 5, 3, 3, 2, 8, 2, 2, 1, 1, 18, 6, 4, 3, 3, 66, 22, 16, 13, 11, 12, 4, 3, 2, 2, 27, 9, 6, 5, 4, 23, 8, 5, 4, 4, 36, 12, 8, 7, 6, 1, 1, 1, 1, 1, 35, 12, 8, 7, 6, 75, 26, 18, 15, 13, 23, 8, 5, 4, 4, 8, 3, 2, 1, 1, 28, 9, 7, 5, 5, 32, 11, 7, 6, 5, 27, 9, 6, 5, 4, 4, 1, 1, 1, 1, 93, 32, 23, 19, 16, 80, 27, 19, 16, 14, 14, 4, 3, 2, 2, 23, 8, 5, 4, 4, 1, 1, 1, 1, 1, 115, 40, 28, 23, 20, 44, 15, 10, 8, 7, 26, 9, 6, 5, 4, 37, 12, 9, 7, 6, 5, 1, 1, 1, 1, 9, 3, 2, 1, 1, 7, 2, 1, 1, 1, 23, 8, 5, 4, 4, 2, 1, 1, 1, 1, 58, 20, 14, 11, 10, 16, 5, 3, 3, 2, 15, 5, 3, 3, 2, 2, 1, 1, 1, 1, 29, 10, 7, 6, 5, 43, 15, 10, 8, 7, 25, 8, 6, 5, 4, 7, 2, 1, 1, 1, 39, 13, 9, 8, 7, 4, 1, 1, 1, 1, 45, 15, 11, 9, 8, 22, 7, 5, 4, 4, 8, 3, 2, 1, 1, 18, 6, 4, 3, 3, 25, 8, 6, 5, 4, 7, 2, 1, 1, 1, 48, 16, 11, 9, 8, 14, 4, 3, 2, 2, 57, 19, 14, 11, 10, 46, 16, 11, 9, 8, 2, 1, 1, 1, 1, 26, 9, 6, 5, 4, 9, 3, 2, 1, 1, 36, 12, 8, 7, 6, 20, 6, 4, 4, 3, 15, 5, 3, 3, 2, 58, 20, 14, 11, 10, 1, 1, 1, 1, 1, 21, 7, 5, 4, 3, 10, 3, 2, 2, 1, 1, 1, 1, 1, 1, 36, 12, 8, 7, 6, 21, 7, 5, 4, 3, 58, 20, 14, 11, 10, 23, 8, 5, 4, 4, 10, 3, 2, 2, 1, 109, 37, 26, 22, 19, 3, 1, 1, 1, 1, 1, 1, 1, 1, 1, 34, 11, 8, 6, 6, 11, 4, 2, 2, 2, 11, 4, 2, 2, 2, 54, 18, 13, 11, 9, 10, 3, 2, 2, 1, 56, 19, 13, 11, 10, 26, 9, 6, 5, 4, 10, 3, 2, 2, 1, 1, 1, 1, 1, 1, 7, 2, 1, 1, 1, 89, 30, 21, 18, 16, 13, 4, 3, 2, 2, 4, 1, 1, 1, 1, 9, 3, 2, 1, 1, 59, 20, 14, 12, 10, 4, 1, 1, 1, 1, 38, 13, 9, 7, 7, 3, 1, 1, 1, 1, 84, 29, 20, 17, 15, 19, 6, 4, 3, 3, 1, 1, 1, 1, 1, 69, 23, 16, 14, 12, 11, 3, 2, 2, 2, 34, 11, 8, 6, 6, 19, 6, 4, 3, 3, 2, 1, 1, 1, 1, 2, 1, 1, 1, 1, 4, 1, 1, 1, 1, 4, 1, 1, 1, 1, 1, 1, 1, 1, 1, 1, 1, 1, 1, 1, 76, 26, 18, 15, 13, 2, 1, 1, 1, 1, 18, 6, 4, 3, 3, 3, 1, 1, 1, 1, 6, 2, 1, 1, 1, 37, 12, 9, 7, 6, 72, 24, 17, 14, 12, 16, 5, 4, 3, 2, 1, 1, 1, 1, 1, 184, 63, 45, 37, 33, 1, 1, 1, 1, 1, 12, 4, 3, 2, 2, 20, 6, 4, 4, 3, 57, 19, 14, 11, 10, 44, 15, 10, 9, 8, 24, 8, 5, 4, 4, 13, 4, 3, 2, 2, 46, 16, 11, 9, 8, 52, 18, 12, 10, 9, 53, 18, 13, 10, 9, 32, 11, 8, 6, 5, 2, 1, 1, 1, 1, 9, 3, 2, 1, 1, 17, 5, 4, 3, 3, 18, 6, 4, 3, 3, 46, 15, 11, 9, 8, 7, 2, 1, 1, 1, 28, 9, 6, 5, 5, 12, 4, 2, 2, 2, 38, 13, 9, 7, 6, 5, 1, 1, 1, 1, 16, 5, 4, 3, 3, 2, 1, 1, 1, 1, 6, 2, 1, 1, 1, 70, 24, 17, 14, 12, 9, 3, 2, 1, 1, 57, 19, 14, 11, 10, 19, 6, 4, 3, 3, 1, 1, 1, 1, 1, 40, 14, 9, 8, 7, 1, 1, 1, 1, 1, 45, 15, 11, 9, 8, 1, 1, 1, 1, 1, 29, 10, 7, 5, 5, 4, 1, 1, 1, 1, 10, 3, 2, 2, 1, 78, 27, 19, 16, 14, 17, 5, 4, 3, 3, 27, 9, 6, 5, 4, 34, 12, 8, 7, 6, 3, 1, 1, 1, 1, 47, 16, 11, 9, 8, 63, 21, 15, 12, 11, 4, 1, 1, 1, 1, 20, 7, 5, 4, 3, 8, 2, 2, 1, 1, 34, 12, 8, 7, 6, 1, 1, 1, 1, 1, 18, 6, 4, 3, 3, 40, 14, 9, 8, 7, 34, 11, 8, 6, 6, 2, 1, 1, 1, 1, 46, 15, 11, 9, 8, 7, 2, 1, 1, 1, 42, 14, 10, 8, 7, 17, 6, 4, 3, 3, 4, 1, 1, 1, 1, 34, 11, 8, 6, 6, 42, 14, 10, 8, 7, 31, 10, 7, 6, 5, 86, 29, 21, 17, 15, 7, 2, 1, 1, 1, 6, 2, 1, 1, 1, 4, 1, 1, 1, 1, 20, 6, 4, 4, 3, 13, 4, 3, 2, 2, 11, 3, 2, 2, 2, 15, 5, 3, 3, 2, 8, 2, 2, 1, 1, 1, 1, 1, 1, 1, 16, 5, 4, 3, 2, 8, 2, 2, 1, 1, 15, 5, 3, 3, 2, 68, 23, 16, 13, 12, 5, 1, 1, 1, 1, 26, 9, 6, 5, 4, 26, 9, 6, 5, 4, 8, 2, 2, 1, 1, 16, 5, 4, 3, 2, 90, 31, 22, 18, 16, 10, 3, 2, 2, 1, 32, 11, 7, 6, 5, 47, 16, 11, 9, 8, 11, 3, 2, 2, 2, 118, 41, 29, 24, 21, 25, 8, 6, 5, 4, 17, 6, 4, 3, 3, 32, 11, 7, 6, 5, 14, 4, 3, 2, 2, 32, 11, 7, 6, 5, 8, 2, 2, 1, 1, 67, 23, 16, 13, 12, 20, 6, 4, 4, 3, 7, 2, 1, 1, 1, 14, 5, 3, 3, 2, 58, 20, 14, 11, 10, 42, 14, 10, 8, 7, 17, 5, 4, 3, 3, 11, 3, 2, 2, 2, 12, 4, 2, 2, 2, 102, 35, 25, 20, 18, 3, 1, 1, 1, 1, 56, 19, 13, 11, 10, 50, 17, 12, 10, 9, 6, 2, 1, 1, 1, 11, 3, 2, 2, 2, 21, 7, 5, 4, 3, 41, 14, 10, 8, 7, 77, 26, 19, 15, 13, 124, 42, 30, 25, 22, 8, 2, 2, 1, 1, 5, 1, 1, 1, 1, 17, 5, 4, 3, 3, 21, 7, 5, 4, 3, 27, 9, 6, 5, 4, 2, 1, 1, 1, 1, 26, 9, 6, 5, 4, 65, 22, 16, 13, 11, 63, 22, 15, 12, 11, 74, 25, 18, 15, 13, 66, 22, 16, 13, 11, 83, 28, 20, 17, 15, 1, 1, 1, 1, 1, 64, 22, 15, 13, 11, 8, 2, 2, 1, 1, 10, 3, 2, 2, 1, 15, 5, 3, 3, 2, 80, 27, 19, 16, 14, 24, 8, 5, 4, 4, 11, 3, 2, 2, 2, 12, 4, 2, 2, 2, 60, 21, 14, 12, 10, 44, 15, 10, 9, 8, 3, 1, 1, 1, 1, 7, 2, 1, 1, 1, 12, 4, 2, 2, 2, 6, 2, 1, 1, 1, 21, 7, 5, 4, 3, 6, 2, 1, 1, 1, 22, 7, 5, 4, 3, 71, 24, 17, 14, 12, 48, 16, 11, 9, 8, 2, 1, 1, 1, 1, 5, 2, 1, 1, 1, 13, 4, 3, 2, 2, 26, 9, 6, 5, 4, 12, 4, 3, 2, 2, 7, 2, 1, 1, 1, 10, 3, 2, 2, 1, 5, 2, 1, 1, 1, 51, 17, 12, 10, 9, 30, 10, 7, 6, 5, 13, 4, 3, 2, 2, 31, 10, 7, 6, 5, 18, 6, 4, 3, 3, 19, 6, 4, 3, 3, 11, 4, 2, 2, 2, 17, 5, 4, 3, 3, 109, 37, 26, 22, 19, 39, 13, 9, 8, 7, 45, 15, 11, 9, 8, 3, 1, 1, 1, 1, 18, 6, 4, 3, 3, 11, 4, 2, 2, 2, 2, 1, 1, 1, 1, 13, 4, 3, 2, 2, 1, 1, 1, 1, 1, 6, 2, 1, 1, 1, 41, 14, 10, 8, 7, 29, 10, 7, 6, 5, 31, 10, 7, 6, 5, 2, 1, 1, 1, 1, 4, 1, 1, 1, 1, 1, 1, 1, 1, 1, 2, 1, 1, 1, 1, 2, 1, 1, 1, 1, 83, 28, 20, 16, 15, 58, 20, 14, 11, 10, 5, 2, 1, 1, 1, 7, 2, 1, 1, 1, 83, 28, 20, 17, 15, 21, 7, 5, 4, 3, 11, 4, 2, 2, 2, 16, 5, 3, 3, 2, 8, 2, 2, 1, 1, 22, 7, 5, 4, 4, 33, 11, 8, 6, 6, 18, 6, 4, 3, 3, 44, 15, 10, 9, 8, 3, 1, 1, 1, 1, 23, 8, 5, 4, 4, 118, 40, 28, 24, 21, 4, 1, 1, 1, 1, 17, 6, 4, 3, 3, 25, 8, 6, 5, 4, 10, 3, 2, 2, 1, 86, 29, 21, 17, 15, 17, 5, 4, 3, 3, 16, 5, 4, 3, 3, 60, 20, 14, 12, 10, 1, 1, 1, 1, 1, 52, 18, 12, 10, 9, 3, 1, 1, 1, 1, 12, 4, 3, 2, 2, 17, 5, 4, 3, 3, 16, 5, 4, 3, 3, 1, 1, 1, 1, 1, 9, 3, 2, 2, 1, 11, 3, 2, 2, 2, 80, 27, 19, 16, 14, 64, 22, 15, 13, 11, 22, 7, 5, 4, 4, 70, 24, 17, 14, 12, 51, 17, 12, 10, 9, 12, 4, 2, 2, 2, 3, 1, 1, 1, 1, 24, 8, 5, 4, 4, 10, 3, 2, 2, 1, 1, 1, 1, 1, 1, 102, 35, 25, 20, 18, 90, 31, 22, 18, 16]);
energy      = array3d(JOBS,MACHINES,1..SPEED,[97, 99, 99, 99, 99, 82, 94, 96, 97, 97, 70, 88, 92, 93, 94, 75, 91, 93, 95, 95, 85, 95, 97, 97, 98, 95, 98, 99, 99, 99, 84, 94, 96, 97, 97, 88, 96, 98, 98, 98, 85, 95, 96, 97, 97, 89, 96, 98, 98, 98, 62, 85, 89, 91, 92, 69, 87, 91, 93, 94, 91, 97, 98, 99, 99, 81, 93, 95, 96, 97, 92, 98, 98, 99, 99, 86, 95, 97, 97, 98, 89, 97, 98, 98, 98, 76, 91, 94, 95, 96, 89, 96, 98, 98, 98, 86, 95, 97, 97, 98, 72, 89, 92, 94, 95, 87, 96, 97, 98, 98, 54, 81, 86, 88, 89, 95, 99, 99, 99, 99, 71, 88, 92, 93, 94, 86, 96, 97, 98, 98, 86, 96, 97, 98, 98, 77, 92, 94, 95, 96, 82, 94, 96, 97, 97, 87, 96, 97, 98, 98, 99, 99, 99, 99, 99, 98, 99, 99, 99, 99, 73, 89, 93, 94, 95, 82, 94, 96, 97, 97, 74, 90, 93, 94, 95, 44, 76, 82, 85, 86, 74, 90, 93, 94, 95, 99, 99, 99, 99, 99, 91, 97, 98, 99, 99, 79, 92, 95, 96, 96, 94, 98, 99, 99, 99, 42, 74, 81, 84, 86, 47, 77, 83, 86, 87, 61, 85, 89, 91, 92, 85, 95, 96, 97, 98, 62, 85, 89, 91, 92, 97, 99, 99, 99, 99, 91, 97, 98, 99, 99, 85, 95, 97, 97, 98, 70, 88, 92, 93, 94, 84, 95, 96, 97, 97, 97, 99, 99, 99, 99, 90, 97, 98, 98, 99, 90, 97, 98, 98, 99, 91, 97, 98, 99, 99, 96, 99, 99, 99, 99, 87, 96, 97, 98, 98, 86, 95, 97, 97, 98, 68, 87, 91, 93, 94, 66, 86, 90, 92, 93, 82, 94, 96, 97, 97, 86, 95, 97, 97, 98, 68, 87, 91, 93, 93, 57, 82, 87, 89, 90, 74, 90, 93, 95, 95, 66, 86, 90, 92, 93, 48, 77, 84, 86, 87, 99, 99, 99, 99, 99, 58, 83, 87, 90, 91, 92, 98, 98, 99, 99, 85, 95, 96, 97, 97, 66, 86, 90, 92, 93, 72, 89, 92, 94, 95, 96, 99, 99, 99, 99, 76, 91, 94, 95, 95, 99, 99, 99, 99, 99, 89, 97, 98, 98, 98, 65, 86, 90, 92, 93, 86, 96, 97, 98, 98, 79, 92, 95, 96, 96, 71, 89, 92, 94, 94, 64, 86, 90, 91, 92, 69, 88, 91, 93, 94, 99, 99, 99, 99, 99, 86, 96, 97, 98, 98, 85, 95, 97, 97, 98, 99, 99, 99, 99, 99, 81, 94, 96, 96, 97, 78, 92, 95, 96, 96, 63, 86, 89, 91, 92, 48, 77, 83, 86, 87, 97, 99, 99, 99, 99, 94, 98, 99, 99, 99, 76, 91, 94, 95, 95, 97, 99, 99, 99, 99, 94, 98, 99, 99, 99, 80, 93, 95, 96, 97, 96, 99, 99, 99, 99, 67, 87, 91, 92, 93, 60, 84, 88, 90, 91, 99, 99, 99, 99, 99, 82, 94, 96, 96, 97, 66, 86, 90, 92, 93, 38, 71, 79, 82, 84, 92, 98, 98, 99, 99, 96, 99, 99, 99, 99, 58, 83, 87, 89, 91, 53, 81, 86, 88, 89, 95, 99, 99, 99, 99, 86, 95, 97, 97, 98, 72, 89, 92, 94, 95, 61, 85, 89, 91, 92, 96, 99, 99, 99, 99, 75, 91, 94, 95, 95, 65, 86, 90, 92, 93, 81, 93, 95, 96, 97, 96, 99, 99, 99, 99, 99, 99, 99, 99, 99, 92, 98, 98, 99, 99, 65, 86, 90, 92, 93, 99, 99, 99, 99, 99, 99, 99, 99, 99, 99, 89, 96, 98, 98, 98, 99, 99, 99, 99, 99, 96, 99, 99, 99, 99, 99, 99, 99, 99, 99, 82, 94, 96, 97, 97, 74, 90, 93, 94, 95, 86, 96, 97, 98, 98, 97, 99, 99, 99, 99, 90, 97, 98, 98, 99, 79, 93, 95, 96, 96, 48, 77, 84, 86, 87, 28, 65, 73, 77, 80, 93, 98, 99, 99, 99, 99, 99, 99, 99, 99, 63, 86, 89, 91, 92, 51, 79, 85, 87, 88, 86, 95, 97, 97, 98, 68, 87, 91, 93, 94, 59, 84, 88, 90, 91, 78, 92, 95, 96, 96, 58, 83, 87, 90, 91, 99, 99, 99, 99, 99, 92, 98, 98, 99, 99, 92, 98, 98, 99, 99, 97, 99, 99, 99, 99, 53, 81, 86, 88, 89, 99, 99, 99, 99, 99, 75, 91, 93, 95, 95, 99, 99, 99, 99, 99, 89, 97, 98, 98, 98, 86, 96, 97, 98, 98, 95, 99, 99, 99, 99, 82, 94, 96, 97, 97, 82, 94, 96, 96, 97, 91, 97, 98, 98, 99, 71, 89, 92, 93, 94, 96, 99, 99, 99, 99, 95, 99, 99, 99, 99, 89, 97, 98, 98, 98, 88, 96, 97, 98, 98, 95, 98, 99, 99, 99, 52, 80, 86, 87, 89, 63, 86, 89, 91, 92, 98, 99, 99, 99, 99, 89, 96, 98, 98, 98, 94, 98, 99, 99, 99, 86, 95, 97, 97, 98, 92, 98, 98, 99, 99, 83, 94, 96, 97, 97, 51, 80, 85, 87, 89, 88, 96, 97, 98, 98, 76, 91, 94, 95, 96, 79, 92, 95, 96, 96, 69, 88, 92, 93, 94, 99, 99, 99, 99, 99, 70, 88, 92, 93, 94, 47, 77, 83, 86, 87, 79, 92, 95, 96, 96, 92, 97, 98, 99, 99, 75, 91, 93, 95, 95, 72, 89, 93, 94, 95, 76, 91, 94, 95, 96, 96, 99, 99, 99, 99, 39, 72, 79, 82, 85, 44, 76, 82, 85, 86, 86, 96, 97, 98, 98, 79, 92, 95, 96, 96, 99, 99, 99, 99, 99, 31, 67, 75, 79, 81, 64, 86, 90, 92, 93, 77, 91, 94, 95, 96, 69, 88, 91, 93, 94, 95, 99, 99, 99, 99, 91, 97, 98, 99, 99, 93, 98, 99, 99, 99, 79, 92, 95, 96, 96, 98, 99, 99, 99, 99, 55, 81, 86, 89, 90, 85, 95, 97, 97, 98, 86, 95, 97, 97, 98, 98, 99, 99, 99, 99, 74, 90, 93, 94, 95, 65, 86, 90, 92, 93, 77, 92, 94, 95, 96, 93, 98, 99, 99, 99, 67, 87, 91, 92, 93, 96, 99, 99, 99, 99, 63, 86, 89, 91, 92, 80, 93, 95, 96, 96, 92, 97, 98, 99, 99, 83, 94, 96, 97, 97, 77, 92, 94, 95, 96, 93, 98, 99, 99, 99, 61, 85, 89, 91, 92, 86, 96, 97, 98, 98, 56, 82, 86, 89, 90, 63, 85, 89, 91, 92, 98, 99, 99, 99, 99, 77, 91, 94, 95, 96, 91, 97, 98, 99, 99, 69, 88, 92, 93, 94, 81, 94, 96, 96, 97, 86, 95, 97, 97, 98, 55, 81, 86, 89, 90, 99, 99, 99, 99, 99, 81, 93, 95, 96, 97, 90, 97, 98, 98, 99, 99, 99, 99, 99, 99, 69, 88, 92, 93, 94, 81, 93, 95, 96, 97, 55, 81, 86, 89, 90, 79, 92, 95, 96, 96, 90, 97, 98, 98, 99, 33, 69, 77, 80, 82, 97, 99, 99, 99, 99, 99, 99, 99, 99, 99, 71, 89, 92, 94, 94, 89, 96, 98, 98, 98, 89, 96, 98, 98, 98, 58, 83, 87, 89, 91, 90, 97, 98, 98, 99, 57, 82, 87, 89, 90, 77, 91, 94, 95, 96, 90, 97, 98, 98, 99, 99, 99, 99, 99, 99, 93, 98, 99, 99, 99, 41, 74, 81, 83, 85, 87, 96, 97, 98, 98, 96, 99, 99, 99, 99, 91, 97, 98, 99, 99, 55, 81, 86, 88, 90, 96, 99, 99, 99, 99, 68, 87, 91, 93, 93, 97, 99, 99, 99, 99, 43, 74, 81, 84, 86, 82, 94, 96, 97, 97, 99, 99, 99, 99, 99, 50, 79, 85, 86, 88, 89, 97, 98, 98, 98, 71, 89, 92, 94, 94, 82, 94, 96, 97, 97, 98, 99, 99, 99, 99, 98, 99, 99, 99, 99, 96, 99, 99, 99, 99, 96, 99, 99, 99, 99, 99, 99, 99, 99, 99, 99, 99, 99, 99, 99, 46, 77, 83, 86, 87, 98, 99, 99, 99, 99, 83, 94, 96, 97, 97, 97, 99, 99, 99, 99, 94, 98, 99, 99, 99, 69, 88, 91, 93, 94, 48, 78, 84, 86, 88, 85, 95, 96, 97, 98, 99, 99, 99, 99, 99, 15, 53, 63, 69, 71, 99, 99, 99, 99, 99, 88, 96, 97, 98, 98, 81, 94, 96, 96, 97, 56, 82, 86, 89, 90, 64, 86, 90, 91, 92, 78, 92, 95, 96, 96, 87, 96, 97, 98, 98, 63, 85, 89, 91, 92, 59, 83, 88, 90, 91, 58, 83, 87, 90, 91, 72, 89, 92, 94, 95, 98, 99, 99, 99, 99, 91, 97, 98, 99, 99, 84, 95, 96, 97, 97, 83, 94, 96, 97, 97, 63, 86, 89, 91, 92, 93, 98, 99, 99, 99, 75, 91, 94, 95, 95, 88, 96, 98, 98, 98, 68, 87, 91, 93, 94, 95, 99, 99, 99, 99, 85, 95, 96, 97, 97, 98, 99, 99, 99, 99, 94, 98, 99, 99, 99, 49, 78, 84, 86, 88, 91, 97, 98, 99, 99, 56, 82, 86, 89, 90, 82, 94, 96, 97, 97, 99, 99, 99, 99, 99, 67, 86, 91, 92, 93, 99, 99, 99, 99, 99, 63, 86, 89, 91, 92, 99, 99, 99, 99, 99, 74, 90, 93, 95, 95, 96, 99, 99, 99, 99, 90, 97, 98, 98, 99, 45, 76, 82, 85, 86, 84, 95, 96, 97, 97, 76, 91, 94, 95, 96, 71, 88, 92, 93, 94, 97, 99, 99, 99, 99, 62, 85, 89, 91, 92, 53, 81, 86, 88, 89, 96, 99, 99, 99, 99, 81, 93, 95, 96, 97, 92, 98, 98, 99, 99, 71, 88, 92, 93, 94, 99, 99, 99, 99, 99, 83, 94, 96, 97, 97, 67, 86, 91, 92, 93, 71, 89, 92, 94, 94, 98, 99, 99, 99, 99, 63, 86, 89, 91, 92, 93, 98, 99, 99, 99, 65, 86, 90, 92, 93, 84, 94, 96, 97, 97, 96, 99, 99, 99, 99, 71, 89, 92, 94, 94, 65, 86, 90, 92, 93, 73, 90, 93, 94, 95, 42, 74, 81, 84, 86, 93, 98, 99, 99, 99, 94, 98, 99, 99, 99, 96, 99, 99, 99, 99, 81, 94, 96, 96, 97, 87, 96, 97, 98, 98, 89, 97, 98, 98, 98, 86, 95, 97, 97, 98, 92, 98, 98, 99, 99, 99, 99, 99, 99, 99, 85, 95, 96, 97, 98, 92, 98, 98, 99, 99, 86, 95, 97, 97, 98, 50, 79, 85, 87, 88, 95, 99, 99, 99, 99, 77, 91, 94, 95, 96, 77, 91, 94, 95, 96, 92, 98, 98, 99, 99, 85, 95, 96, 97, 98, 40, 73, 80, 83, 85, 90, 97, 98, 98, 99, 72, 89, 93, 94, 95, 62, 85, 89, 91, 92, 89, 97, 98, 98, 98, 30, 66, 74, 78, 81, 77, 92, 94, 95, 96, 84, 94, 96, 97, 97, 72, 89, 93, 94, 95, 86, 96, 97, 98, 98, 72, 89, 93, 94, 95, 92, 98, 98, 99, 99, 51, 79, 85, 87, 88, 81, 94, 96, 96, 97, 93, 98, 99, 99, 99, 86, 95, 97, 97, 98, 55, 81, 86, 89, 90, 65, 86, 90, 92, 93, 84, 95, 96, 97, 97, 89, 97, 98, 98, 98, 88, 96, 98, 98, 98, 36, 70, 77, 81, 83, 97, 99, 99, 99, 99, 57, 82, 87, 89, 90, 60, 84, 88, 90, 91, 94, 98, 99, 99, 99, 89, 97, 98, 98, 98, 81, 93, 95, 96, 97, 66, 86, 90, 92, 93, 46, 77, 82, 86, 87, 28, 65, 74, 77, 80, 92, 98, 98, 99, 99, 95, 99, 99, 99, 99, 84, 95, 96, 97, 97, 81, 93, 95, 96, 97, 76, 91, 94, 95, 96, 98, 99, 99, 99, 99, 77, 91, 94, 95, 96, 52, 80, 85, 87, 89, 53, 80, 86, 88, 89, 47, 77, 83, 86, 87, 51, 80, 85, 87, 89, 43, 75, 81, 84, 86, 99, 99, 99, 99, 99, 52, 80, 86, 87, 89, 92, 98, 98, 99, 99, 90, 97, 98, 98, 99, 86, 95, 97, 97, 98, 44, 76, 82, 85, 86, 78, 92, 95, 96, 96, 89, 97, 98, 98, 98, 88, 96, 98, 98, 98, 54, 81, 86, 88, 90, 64, 86, 90, 91, 92, 97, 99, 99, 99, 99, 93, 98, 99, 99, 99, 88, 96, 98, 98, 98, 94, 98, 99, 99, 99, 81, 93, 95, 96, 97, 94, 98, 99, 99, 99, 80, 93, 95, 96, 97, 49, 78, 84, 86, 88, 61, 85, 89, 91, 92, 98, 99, 99, 99, 99, 95, 98, 99, 99, 99, 87, 96, 97, 98, 98, 77, 91, 94, 95, 96, 88, 96, 97, 98, 98, 93, 98, 99, 99, 99, 90, 97, 98, 98, 99, 95, 98, 99, 99, 99, 60, 84, 88, 90, 91, 74, 90, 93, 94, 95, 87, 96, 97, 98, 98, 73, 90, 93, 94, 95, 83, 94, 96, 97, 97, 82, 94, 96, 97, 97, 89, 96, 98, 98, 98, 84, 95, 96, 97, 97, 33, 69, 77, 80, 82, 67, 87, 91, 92, 93, 63, 86, 89, 91, 92, 97, 99, 99, 99, 99, 83, 94, 96, 97, 97, 89, 96, 98, 98, 98, 98, 99, 99, 99, 99, 87, 96, 97, 98, 98, 99, 99, 99, 99, 99, 94, 98, 99, 99, 99, 66, 86, 90, 92, 93, 74, 90, 93, 94, 95, 73, 90, 93, 94, 95, 98, 99, 99, 99, 99, 96, 99, 99, 99, 99, 99, 99, 99, 99, 99, 98, 99, 99, 99, 99, 98, 99, 99, 99, 99, 43, 75, 81, 85, 86, 55, 81, 86, 89, 90, 95, 98, 99, 99, 99, 93, 98, 99, 99, 99, 43, 75, 81, 84, 86, 81, 93, 95, 96, 97, 89, 96, 98, 98, 98, 85, 95, 97, 97, 98, 92, 98, 98, 99, 99, 80, 93, 95, 96, 96, 71, 89, 92, 94, 94, 83, 94, 96, 97, 97, 64, 86, 90, 91, 92, 97, 99, 99, 99, 99, 79, 92, 95, 96, 96, 30, 67, 75, 78, 81, 96, 99, 99, 99, 99, 84, 94, 96, 97, 97, 77, 92, 94, 95, 96, 90, 97, 98, 98, 99, 42, 74, 81, 84, 86, 84, 95, 96, 97, 97, 85, 95, 96, 97, 97, 54, 81, 86, 88, 90, 99, 99, 99, 99, 99, 59, 83, 88, 90, 91, 97, 99, 99, 99, 99, 88, 96, 97, 98, 98, 84, 95, 96, 97, 97, 85, 95, 96, 97, 97, 99, 99, 99, 99, 99, 91, 97, 98, 98, 99, 89, 97, 98, 98, 98, 44, 76, 82, 85, 86, 52, 80, 86, 87, 89, 80, 93, 95, 96, 96, 49, 78, 84, 86, 88, 60, 84, 88, 90, 91, 88, 96, 98, 98, 98, 97, 99, 99, 99, 99, 78, 92, 95, 96, 96, 90, 97, 98, 98, 99, 99, 99, 99, 99, 99, 36, 70, 77, 81, 83, 40, 73, 80, 83, 85]);
precedence  = array2d(JOBS,MACHINES,[7, 14, 16, 1, 6, 22, 15, 21, 13, 9, 2, 10, 0, 3, 23, 4, 24, 18, 11, 19, 12, 8, 5, 20, 17, 17, 0, 4, 11, 8, 22, 20, 15, 21, 23, 24, 13, 6, 12, 18, 5, 14, 19, 9, 16, 2, 3, 1, 7, 10, 21, 19, 15, 17, 3, 9, 23, 8, 24, 10, 16, 22, 1, 0, 18, 5, 14, 2, 11, 13, 6, 4, 20, 12, 7, 2, 16, 3, 23, 22, 5, 11, 9, 18, 7, 8, 10, 6, 21, 14, 13, 24, 20, 1, 19, 0, 4, 17, 15, 12, 5, 0, 21, 1, 20, 7, 9, 16, 11, 8, 6, 4, 3, 23, 19, 14, 24, 17, 2, 13, 15, 22, 12, 18, 10, 9, 5, 17, 21, 8, 2, 19, 16, 1, 20, 0, 12, 6, 7, 22, 4, 15, 10, 3, 13, 23, 24, 14, 18, 11, 1, 16, 2, 4, 6, 9, 17, 20, 13, 14, 8, 19, 15, 24, 22, 23, 21, 3, 10, 11, 5, 18, 0, 7, 12, 24, 18, 1, 2, 16, 15, 22, 17, 23, 7, 0, 3, 14, 9, 10, 13, 21, 19, 12, 4, 6, 11, 5, 8, 20, 5, 12, 13, 1, 11, 24, 2, 23, 9, 17, 7, 19, 16, 20, 15, 3, 22, 14, 18, 0, 10, 6, 21, 4, 8, 9, 17, 24, 1, 8, 23, 4, 5, 12, 10, 15, 13, 7, 14, 16, 22, 19, 3, 18, 0, 21, 20, 6, 11, 2, 12, 5, 8, 9, 22, 13, 19, 21, 11, 0, 10, 17, 15, 18, 7, 24, 23, 14, 2, 16, 1, 3, 6, 4, 20, 19, 23, 7, 17, 0, 14, 6, 5, 15, 21, 8, 3, 1, 2, 24, 9, 11, 18, 13, 22, 4, 10, 16, 12, 20, 3, 9, 17, 8, 6, 14, 15, 22, 12, 13, 11, 18, 5, 23, 21, 16, 20, 19, 2, 4, 10, 7, 24, 1, 0, 20, 17, 13, 12, 5, 16, 3, 1, 15, 14, 10, 19, 2, 22, 23, 9, 7, 18, 0, 4, 8, 21, 24, 11, 6, 2, 12, 18, 16, 8, 14, 5, 24, 20, 6, 13, 1, 23, 9, 7, 15, 22, 4, 21, 11, 3, 19, 17, 10, 0, 10, 2, 4, 17, 3, 23, 18, 22, 1, 15, 21, 19, 11, 12, 13, 20, 0, 16, 14, 24, 7, 8, 5, 6, 9, 12, 8, 7, 20, 23, 17, 11, 0, 6, 10, 24, 16, 14, 22, 15, 5, 9, 1, 2, 18, 3, 4, 19, 13, 21, 1, 6, 10, 12, 20, 18, 22, 9, 24, 8, 23, 16, 13, 17, 3, 15, 7, 0, 4, 5, 2, 11, 14, 19, 21, 17, 11, 13, 3, 8, 15, 9, 16, 1, 12, 14, 2, 21, 4, 24, 19, 23, 18, 0, 22, 7, 20, 5, 10, 6, 23, 17, 1, 10, 3, 19, 22, 11, 15, 14, 21, 0, 5, 16, 12, 8, 9, 2, 7, 13, 4, 24, 20, 6, 18]);
releaseDate = array2d(JOBS,MACHINES,[152, 186, 194, 102, 148, 232, 190, 230, 181, 156, 109, 158, 100, 121, 233, 126, 236, 216, 171, 222, 173, 153, 129, 229, 202, 153, 30, 47, 87, 63, 212, 204, 138, 205, 213, 224, 94, 58, 92, 157, 57, 102, 165, 68, 149, 35, 46, 33, 59, 79, 167, 158, 143, 149, 49, 91, 178, 87, 182, 92, 145, 174, 37, 20, 151, 62, 126, 46, 106, 123, 72, 51, 159, 121, 78, 30, 194, 31, 224, 213, 72, 106, 94, 198, 85, 89, 105, 80, 201, 170, 135, 227, 200, 21, 199, 20, 63, 197, 185, 122, 138, 90, 226, 94, 224, 150, 155, 192, 169, 151, 139, 124, 123, 248, 211, 182, 256, 209, 121, 172, 190, 247, 170, 210, 168, 94, 60, 191, 210, 93, 38, 201, 163, 2, 208, 0, 119, 68, 89, 213, 41, 156, 95, 40, 131, 227, 229, 133, 200, 111, 95, 156, 96, 100, 107, 120, 159, 186, 153, 154, 118, 180, 155, 217, 200, 216, 196, 99, 134, 139, 101, 161, 90, 111, 144, 331, 249, 81, 90, 226, 223, 307, 232, 323, 150, 50, 116, 220, 153, 160, 172, 293, 250, 162, 140, 148, 161, 141, 151, 262, 34, 83, 86, 1, 66, 188, 14, 175, 57, 110, 43, 154, 105, 156, 104, 15, 172, 87, 121, 0, 58, 41, 164, 30, 51, 64, 163, 210, 27, 62, 199, 38, 43, 111, 78, 126, 117, 61, 118, 157, 196, 179, 35, 164, 20, 194, 193, 60, 80, 32, 153, 126, 132, 147, 238, 154, 200, 234, 152, 100, 149, 190, 157, 199, 130, 249, 248, 155, 119, 168, 118, 120, 129, 125, 220, 302, 347, 172, 221, 100, 202, 168, 154, 208, 327, 173, 134, 101, 121, 353, 176, 186, 291, 197, 334, 153, 177, 218, 188, 326, 48, 123, 237, 91, 66, 162, 201, 255, 147, 161, 136, 238, 58, 256, 251, 205, 247, 239, 38, 57, 125, 69, 257, 32, 30, 222, 211, 191, 182, 141, 210, 120, 105, 199, 195, 180, 214, 106, 236, 243, 179, 176, 212, 100, 137, 177, 231, 290, 181, 168, 84, 215, 240, 238, 118, 226, 105, 326, 279, 107, 218, 66, 323, 125, 110, 232, 313, 102, 303, 213, 86, 274, 239, 208, 50, 270, 96, 125, 383, 100, 429, 385, 415, 94, 376, 410, 398, 284, 310, 367, 409, 90, 378, 369, 430, 202, 211, 127, 173, 246, 111, 68, 42, 175, 184, 152, 78, 0, 39, 74, 187, 139, 135, 183, 136, 38, 69, 8, 9, 155, 16, 37, 174, 132, 177, 82, 110, 127, 132, 245, 230, 280, 119, 285, 115, 283, 206, 133, 212, 86, 205, 111, 80, 100, 101, 85, 131, 185, 237, 271, 185, 109, 148, 6, 79, 156, 81, 184, 1, 110, 149, 2, 211, 8, 226, 199, 220, 186, 0, 215, 27, 210, 10, 100, 25, 347, 288, 72, 210, 99, 330, 345, 240, 265, 260, 344, 70, 105, 269, 244, 177, 186, 77, 174, 259, 100, 374, 343, 107, 292]);
dueDate     = array2d(JOBS,MACHINES,[153, 190, 202, 109, 152, 233, 194, 232, 186, 158, 121, 171, 102, 126, 236, 129, 240, 222, 173, 229, 181, 156, 148, 230, 216, 157, 33, 57, 92, 68, 213, 205, 149, 212, 224, 251, 102, 59, 94, 165, 58, 138, 204, 79, 153, 46, 47, 35, 63, 87, 174, 159, 145, 151, 51, 92, 182, 91, 191, 106, 149, 178, 46, 37, 158, 72, 143, 49, 121, 126, 78, 62, 167, 123, 87, 31, 197, 63, 227, 224, 80, 122, 105, 199, 89, 94, 106, 85, 213, 185, 170, 228, 201, 30, 200, 21, 72, 198, 194, 135, 139, 94, 247, 121, 226, 151, 168, 209, 170, 155, 150, 138, 124, 256, 224, 190, 257, 210, 123, 182, 192, 248, 172, 211, 169, 95, 68, 200, 213, 94, 40, 208, 191, 38, 210, 2, 131, 89, 93, 227, 60, 163, 111, 41, 133, 229, 230, 156, 201, 119, 96, 159, 99, 101, 111, 134, 161, 196, 154, 155, 120, 186, 156, 234, 216, 217, 200, 100, 139, 144, 107, 180, 95, 118, 153, 340, 250, 90, 116, 232, 226, 323, 249, 331, 151, 81, 140, 223, 160, 161, 220, 307, 262, 172, 141, 150, 162, 148, 153, 293, 41, 86, 87, 14, 83, 200, 15, 188, 58, 121, 51, 156, 110, 164, 105, 30, 175, 104, 154, 1, 66, 43, 172, 34, 57, 78, 164, 216, 32, 64, 210, 43, 60, 117, 80, 157, 118, 62, 126, 163, 199, 193, 38, 179, 27, 196, 194, 61, 111, 35, 154, 129, 147, 149, 248, 155, 220, 238, 153, 118, 152, 199, 168, 200, 132, 250, 249, 157, 120, 190, 119, 125, 130, 126, 234, 326, 353, 173, 291, 101, 208, 172, 168, 218, 334, 176, 153, 121, 134, 370, 177, 188, 302, 202, 347, 154, 186, 221, 197, 327, 57, 125, 238, 123, 69, 201, 205, 256, 161, 162, 147, 239, 66, 257, 255, 237, 251, 247, 48, 58, 136, 91, 259, 38, 32, 231, 212, 195, 191, 168, 211, 137, 106, 210, 199, 181, 222, 120, 243, 290, 180, 177, 214, 105, 141, 179, 236, 292, 182, 176, 86, 218, 274, 239, 125, 232, 107, 337, 303, 110, 226, 84, 326, 208, 118, 238, 323, 105, 313, 215, 102, 279, 240, 213, 66, 284, 100, 127, 385, 125, 430, 398, 429, 96, 378, 415, 409, 310, 367, 369, 410, 94, 383, 376, 431, 211, 246, 173, 202, 270, 132, 69, 68, 177, 187, 155, 111, 8, 42, 78, 205, 152, 136, 184, 139, 39, 74, 9, 16, 174, 37, 38, 175, 135, 183, 85, 111, 131, 133, 271, 237, 283, 127, 292, 119, 285, 212, 185, 230, 100, 206, 115, 82, 101, 110, 86, 132, 205, 245, 280, 186, 110, 149, 8, 81, 184, 100, 185, 2, 148, 156, 6, 215, 10, 231, 210, 226, 199, 1, 220, 79, 211, 25, 109, 27, 374, 292, 77, 240, 100, 343, 347, 244, 269, 265, 345, 72, 107, 288, 259, 186, 210, 99, 177, 260, 105, 377, 344, 174, 330]);